p cnf 2661 2465
c ind 1003 1004 1005 1006 1007 1008 1009 1010 1011 1012 0
c ind 1013 1014 1015 1016 1017 1018 1019 1020 1021 1022 0
c ind 1023 1024 1025 1026 1027 1028 1029 1030 1031 1032 0
c ind 1033 1034 1035 1036 1037 1038 1039 1040 1041 1042 0
c ind 1043 1044 1045 912 913 914 915 916 917 918 0
c ind 919 920 921 922 923 924 925 926 927 928 0
c ind 929 930 931 932 933 934 935 936 937 938 0
c ind 939 940 941 942 943 944 945 946 947 948 0
c ind 949 1112 950 1263 1264 951 1068 952 1069 953 0
c ind 1070 1071 1072 1073 1074 1075 1076 1077 1078 1079 0
c ind 1080 1081 1082 1083 1084 954 955 1085 1086 956 0
c ind 957 1087 1088 1089 1090 1091 958 1092 1093 1094 0
c ind 1095 1096 1097 959 1098 1099 960 1100 1101 1102 0
c ind 961 1113 962 1103 1104 1105 1106 1107 1108 1109 0
c ind 963 1110 1111 1046 964 965 1047 1048 1049 1050 0
c ind 966 967 1051 1052 1053 1054 1055 1056 1057 1058 0
c ind 1059 1060 1061 1062 1063 1064 968 1065 969 1066 0
c ind 1067 1467 970 1468 971 1469 1470 1471 1472 1473 0
c ind 1474 1475 972 1476 1114 1477 1478 1479 973 1480 0
c ind 974 1481 1482 1483 975 976 1484 1485 1486 1487 0
c ind 1488 1265 1266 1267 1268 977 978 1269 1270 1271 0
c ind 1272 1273 1489 1274 1275 1276 1277 1278 1279 1280 0
c ind 1281 1282 1490 1283 1284 1285 1491 1286 1492 1287 0
c ind 816 1493 817 818 1494 819 820 1260 821 822 0
c ind 823 824 825 826 827 828 829 830 831 832 0
c ind 833 834 835 836 837 838 839 840 841 842 0
c ind 843 844 845 846 847 848 849 850 851 852 0
c ind 853 854 855 856 857 858 859 860 861 862 0
c ind 863 864 865 866 867 868 869 870 871 872 0
c ind 873 874 875 876 877 878 879 880 881 882 0
c ind 883 884 885 886 887 888 889 890 891 1261 0
c ind 892 893 894 895 896 897 898 899 900 901 0
c ind 902 903 904 905 906 907 908 909 910 911 0
c ind 1288 1289 1290 1291 1292 1293 1294 1295 1296 1297 0
c ind 1298 1299 1300 1301 1302 1303 1304 1305 1306 1262 0
c ind 1307 1308 1309 1310 1311 1312 1313 1314 1315 1316 0
c ind 1317 1318 1319 1320 1321 1322 1323 1324 1325 1326 0
c ind 1327 1328 1329 1330 1331 1332 1333 1334 1335 1336 0
c ind 1337 1338 1339 1340 1341 1342 1343 1344 1345 1346 0
c ind 1347 1348 1349 1350 1351 1352 1353 979 980 981 0
c ind 982 983 984 985 986 987 988 989 990 991 0
c ind 992 993 994 995 996 997 998 999 1000 1001 0
c ind 1002 0
672 -673 -770 0
672 -673 781 0
672 -673 699 0
-672 673 0
-699 770 -672 -781 0
673 -674 -688 -698 0
-673 674 0
-673 688 0
-673 698 0
674 675 -679 0
-674 -675 0
-674 679 0
-676 -1092 675 0
-678 -1092 675 0
-677 -1092 675 0
-675 1092 0
-675 676 677 678 0
676 -1098 1099 1100 0
-676 1098 0
-676 -1100 0
-676 -1099 0
677 1098 1101 1102 0
-677 -1098 0
-677 -1102 0
-677 -1101 0
678 -1093 1094 1095 0
-678 1093 0
-678 -1095 0
-678 -1094 0
679 680 684 -1052 -1479 0
-679 1479 0
-679 -684 0
-679 1052 0
-679 -680 0
681 1480 680 1481 1482 0
-680 -681 0
-680 -1482 0
-680 -1480 0
-680 -1481 0
681 682 -1485 0
681 682 683 -1486 0
-681 -682 0
-681 -683 1485 0
-681 1485 1486 0
682 1483 -1484 0
-682 -1483 0
-682 1484 0
683 1267 1268 0
683 1267 1275 1276 0
-683 -1267 0
-683 -1268 -1275 0
-683 -1268 -1276 0
685 1053 684 1054 1055 0
-684 -685 0
-684 -1055 0
-684 -1053 0
-684 -1054 0
685 686 -1058 0
685 686 687 -1059 0
-685 -686 0
-685 -687 1058 0
-685 1058 1059 0
686 1056 -1057 0
-686 -1056 0
-686 1057 0
687 1064 1065 0
687 1064 1471 1472 0
-687 -1064 0
-687 -1065 -1471 0
-687 -1065 -1472 0
688 -691 900 0
688 -691 893 0
688 689 -691 0
-688 691 0
-689 -893 -688 -900 0
689 -690 -901 902 0
-689 901 0
-689 -902 0
-689 690 0
690 904 -905 -906 907 0
-690 -904 0
-690 -907 0
-690 906 0
-690 905 0
691 692 -695 697 0
691 692 -695 1112 0
-691 695 0
-691 -692 0
-697 -1112 -691 0
-693 -694 692 -882 0
-693 -694 692 -883 0
-692 694 0
-692 693 0
-692 882 883 0
693 885 886 887 888 0
-693 -888 0
-693 -887 0
-693 -885 0
-693 -886 0
694 -879 -880 -881 884 0
-694 881 0
-694 -884 0
-694 879 0
-694 880 0
695 -696 -1017 -1305 -1334 0
-695 696 0
-695 1017 0
-695 1334 0
-695 1305 0
696 -912 -988 0
-696 912 0
-696 988 0
697 851 852 853 0
-697 -851 0
-697 -853 0
-697 -852 0
698 -1260 -1261 0
698 -1114 1262 0
698 -1114 -1261 0
698 -1260 1262 0
1261 -1262 -698 0
1114 1260 -698 0
699 -700 -727 -762 -1153 0
699 -700 -727 762 1153 0
-699 700 0
-699 -762 1153 0
-699 727 0
-699 762 -1153 0
700 -701 -718 1500 0
700 701 -695 -718 -1500 0
-700 -701 -1500 0
-700 701 1500 0
-700 718 0
695 -700 -1500 0
701 711 716 -893 0
701 702 711 716 0
-701 -716 0
-701 -711 0
-701 -702 893 0
702 703 692 710 0
702 703 692 -709 0
-692 -702 0
-702 -703 0
-702 709 -710 0
703 705 951 -1112 0
703 704 705 -1112 0
-703 1112 0
-703 -705 0
-703 -704 -951 0
704 859 -861 0
-704 -859 0
-704 861 0
705 -706 707 0
-705 706 0
-705 -707 0
704 706 -851 0
704 706 -852 0
704 706 -853 0
-704 -706 0
-706 851 852 853 0
707 708 1262 0
707 -708 950 0
674 707 708 0
-707 -708 -950 0
-707 708 -674 -1262 0
708 838 -840 0
-708 -838 0
-708 840 0
709 872 -674 -1262 0
708 709 -674 -1262 0
674 -709 0
-709 1262 0
-708 -709 -872 0
708 710 1112 0
710 872 1112 0
710 950 1112 0
-710 -1112 0
-708 -710 -872 -950 0
711 -712 -715 -953 0
711 712 -713 -715 0
-711 715 0
-711 -712 953 0
-711 712 713 0
712 1300 -1302 0
-712 -1300 0
-712 1302 0
713 -714 -952 0
-702 713 714 0
-713 -714 952 0
702 -713 714 0
714 896 -898 0
-714 -896 0
-714 898 0
715 -893 900 0
-715 893 0
-715 -900 0
-713 716 -717 0
713 -716 0
-716 717 0
689 717 -893 -900 0
-717 893 0
-717 900 0
-689 -717 0
718 -695 -719 0
718 -695 726 0
695 -718 0
719 -726 -718 0
712 -715 719 -720 0
-712 -715 719 -957 0
715 -719 0
712 -719 720 0
-712 -719 957 0
-714 720 -956 0
714 720 -721 0
-714 -720 956 0
714 -720 721 0
721 722 692 725 0
721 722 692 -724 0
-692 -721 0
-721 -722 0
-721 724 -725 0
722 -723 -872 1112 0
674 722 872 1112 0
-722 -1112 0
-722 723 -872 0
-722 872 -674 0
674 708 723 0
-708 723 954 0
708 -723 -674 0
-708 -723 -954 0
-706 723 724 0
706 -724 0
-723 -724 0
725 955 -1112 0
704 725 -1112 0
-725 1112 0
-704 -725 -955 0
720 726 -893 0
717 721 726 0
720 721 726 0
717 726 -893 0
-717 -720 -726 0
-721 -726 893 0
727 -728 -741 -1144 0
727 728 -741 1144 0
-727 741 0
-727 728 -1144 0
-727 -728 1144 0
728 738 -695 0
728 729 -695 -732 0
695 -728 0
-728 -729 -738 0
-728 732 -738 0
729 -731 -872 1112 0
729 730 872 1112 0
-729 -1112 0
-729 731 -872 0
-729 -730 872 0
730 -963 -674 0
-730 963 0
674 -730 0
-708 731 964 0
708 730 731 0
-708 -731 -964 0
708 -730 -731 0
732 -733 737 0
-706 731 732 -733 0
-732 733 0
706 -732 -737 0
-731 -732 -737 0
733 893 692 0
714 733 692 -734 0
-692 -733 0
-733 734 -893 0
-714 -733 -893 0
734 735 736 0
690 734 735 -893 0
-734 -735 0
-734 -736 893 0
-690 -734 -736 0
-712 735 900 0
-735 -900 0
712 -735 0
736 -900 -901 902 0
-736 900 0
-736 901 0
-736 -902 0
737 965 -1112 0
704 737 -1112 0
-737 1112 0
-704 -737 -965 0
738 739 740 0
738 739 966 0
714 738 739 0
-738 -739 0
-714 -738 -740 -966 0
-712 -715 739 -967 0
-739 967 0
712 -739 0
715 -739 0
-734 740 -893 0
-740 893 0
734 -740 0
741 -761 -742 1124 0
741 761 -742 -1124 0
-741 742 0
-741 -761 -1124 0
-741 761 1124 0
742 -743 -750 0
742 745 -748 -750 0
-742 750 0
743 -745 -742 0
743 748 -742 0
-714 743 -893 0
743 -744 -893 0
-743 893 0
714 -743 744 0
-712 744 900 -971 0
712 -744 0
-744 971 0
-744 -900 0
745 -747 -872 1112 0
745 746 872 1112 0
-745 -1112 0
-745 747 -872 0
-745 -746 872 0
746 -1261 -674 0
-746 1261 0
674 -746 0
-708 747 968 0
708 746 747 0
-708 -747 -968 0
708 -746 -747 0
748 749 692 0
-706 747 692 748 0
-692 -748 0
706 -748 -749 0
-747 -748 -749 0
749 969 -1112 0
704 749 -1112 0
-749 1112 0
-704 -749 -969 0
750 -751 -753 -758 0
750 753 -755 -758 0
-750 758 0
751 -753 -750 0
753 755 -750 0
751 -949 -1489 0
751 752 -1489 0
-751 1489 0
-751 -752 949 0
752 -941 -679 943 0
-752 941 0
-752 -943 0
679 -752 0
753 816 -872 0
753 754 816 0
753 816 -873 0
-753 -816 0
-753 -754 872 873 0
754 874 875 876 1112 0
-754 -1112 0
-754 -876 0
-754 -874 0
-754 -875 0
755 757 -679 -947 0
755 756 -679 757 0
679 -755 0
-755 -757 0
-755 -756 947 0
756 -941 943 0
-756 941 0
-756 -943 0
-675 757 941 0
757 941 978 1071 0
-757 -941 0
-757 -978 675 0
-757 -1071 675 0
758 -760 893 0
-744 758 -760 0
758 -759 -760 0
-758 760 0
744 759 -758 -893 0
-734 759 -970 0
714 -734 759 0
734 -759 0
-714 -759 970 0
760 -1305 -688 0
-760 1305 0
688 -760 0
-752 761 -688 0
688 -761 0
752 -761 0
762 768 -695 0
762 763 -695 -766 0
695 -762 0
-762 -763 -768 0
-762 766 -768 0
763 -765 -872 1112 0
763 764 872 1112 0
-763 -1112 0
-763 765 -872 0
-763 -764 872 0
764 -972 -674 0
-764 972 0
674 -764 0
-708 765 973 0
708 764 765 0
-708 -765 -973 0
708 -764 -765 0
-733 766 767 0
-706 -733 765 766 0
733 -766 0
706 -766 -767 0
-765 -766 -767 0
767 974 -1112 0
704 767 -1112 0
-767 1112 0
-704 -767 -974 0
714 768 769 0
740 768 769 0
768 769 975 0
-768 -769 0
-714 -740 -768 -975 0
-712 -715 769 -976 0
-769 976 0
712 -769 0
715 -769 0
770 -771 1161 0
770 771 -1161 0
-770 -771 -1161 0
-770 771 1161 0
771 -772 -695 0
771 780 -695 0
695 -771 0
-771 772 -780 0
712 -715 772 -773 0
-712 -715 772 -1494 0
715 -772 0
712 -772 773 0
-712 -772 1494 0
-714 773 -1493 0
714 773 -774 0
-714 -773 1493 0
714 -773 774 0
774 775 692 779 0
774 775 692 -778 0
-692 -774 0
-774 -775 0
-774 778 -779 0
775 -777 -872 1112 0
775 776 872 1112 0
-775 -1112 0
-775 777 -872 0
-775 -776 872 0
776 -1490 -674 0
-776 1490 0
674 -776 0
-708 777 1491 0
708 776 777 0
-708 -777 -1491 0
708 -776 -777 0
-706 777 778 0
706 -778 0
-777 -778 0
704 779 -1112 0
779 -1112 1492 0
-779 1112 0
-704 -779 -1492 0
773 780 -893 0
717 774 780 0
773 774 780 0
717 780 -893 0
-717 -773 -780 0
-774 -780 893 0
781 -782 -1139 0
781 782 1139 0
-781 -782 1139 0
-781 782 -1139 0
782 -783 -695 0
782 791 -695 0
695 -782 0
-782 783 -791 0
712 -715 783 -784 0
-712 -715 783 -962 0
715 -783 0
712 -783 784 0
-712 -783 962 0
-714 784 -961 0
714 784 -785 0
-714 -784 961 0
714 -784 785 0
785 786 692 790 0
785 786 692 -789 0
-692 -785 0
-785 -786 0
-785 789 -790 0
786 -788 -872 1112 0
786 787 872 1112 0
-786 -1112 0
-786 788 -872 0
-786 -787 872 0
787 -958 -674 0
-787 958 0
674 -787 0
-708 788 959 0
708 787 788 0
-708 -788 -959 0
708 -787 -788 0
-706 788 789 0
706 -789 0
-788 -789 0
790 960 -1112 0
704 790 -1112 0
-790 1112 0
-704 -790 -960 0
784 791 -893 0
717 785 791 0
784 785 791 0
717 791 -893 0
-717 -784 -791 0
-785 -791 893 0
799 -673 792 0
793 -673 792 0
673 -792 0
-792 -793 -799 0
793 794 -795 -796 2255 0
793 -794 -795 -796 -2255 0
-793 796 0
794 -2255 -793 0
-793 795 0
-794 2255 -793 0
701 794 -695 0
695 -794 0
-701 -794 0
795 -742 -718 0
718 -795 0
742 -795 0
762 796 -797 -798 1908 0
-762 796 -797 -798 -1908 0
-796 798 0
762 -1908 -796 0
-796 797 0
-762 1908 -796 0
-761 797 1879 0
761 797 -1879 0
-761 -1879 -797 0
761 1879 -797 0
-728 798 -1899 0
728 798 1899 0
-728 1899 -798 0
728 -1899 -798 0
771 -782 799 -1894 1916 0
-771 -782 799 -1894 -1916 0
771 782 799 1894 1916 0
-771 782 799 1894 -1916 0
-782 1894 -799 0
782 -1894 -799 0
771 -1916 -799 0
-771 1916 -799 0
-770 800 -673 0
699 800 -673 0
-782 800 -673 0
673 -800 0
-699 770 782 -800 0
-762 801 -673 0
801 802 -673 0
727 801 -673 0
673 -801 0
-727 762 -801 -802 0
-700 770 802 0
700 -802 0
-770 -802 0
-728 803 -673 0
802 803 -673 0
741 803 -673 0
673 -803 0
728 -741 -802 -803 0
-771 804 -673 0
804 805 -673 0
673 -804 0
771 -804 -805 0
-700 -741 805 0
700 -805 0
741 -805 0
806 807 -673 0
701 806 -673 0
673 -806 0
-701 -806 -807 0
-741 807 -718 0
718 -807 0
741 -807 0
795 808 -673 0
761 808 -673 0
673 -808 0
-761 -808 -795 0
795 809 -673 0
673 -809 0
-795 -809 0
-770 810 -673 0
782 810 -673 0
699 810 -673 0
673 -810 0
-699 770 -782 -810 0
802 811 -673 0
727 811 -673 0
762 811 -673 0
673 -811 0
-727 -762 -802 -811 0
802 812 -673 0
728 812 -673 0
741 812 -673 0
673 -812 0
-728 -741 -802 -812 0
805 813 -673 0
771 813 -673 0
673 -813 0
-771 -805 -813 0
-701 814 -673 0
807 814 -673 0
673 -814 0
701 -807 -814 0
-761 815 -673 0
795 815 -673 0
673 -815 0
761 -815 -795 0
1 672 0
-1 -672 0
2 672 0
-2 -672 0
3 792 0
-3 -792 0
91 -800 0
-91 800 0
92 -801 0
-92 801 0
93 -803 0
-93 803 0
94 -804 0
-94 804 0
101 -806 0
-101 806 0
117 -808 0
-117 808 0
240 -809 0
-240 809 0
425 -810 0
-425 810 0
426 -811 0
-426 811 0
427 -812 0
-427 812 0
428 -813 0
-428 813 0
435 -814 0
-435 814 0
451 -815 0
-451 815 0
574 -809 0
-574 809 0
-91 -425 2414 0
91 -2414 0
425 -2414 0
91 -1139 0
-91 1139 0
-92 -426 2415 0
92 -2415 0
426 -2415 0
92 -1153 0
-92 1153 0
-93 -427 2416 0
93 -2416 0
427 -2416 0
93 -1144 0
-93 1144 0
-94 -428 2417 0
94 -2417 0
428 -2417 0
94 -1161 0
-94 1161 0
-101 -435 2424 0
101 -2424 0
435 -2424 0
101 -1500 0
-101 1500 0
-117 -451 2440 0
117 -2440 0
451 -2440 0
117 -1124 0
-117 1124 0
-240 -574 2563 0
240 -2563 0
574 -2563 0
240 -1209 0
-240 1209 0
-1 0
-2 0
3 0
4 0
5 0
6 0
7 0
8 0
9 0
10 0
11 0
12 0
13 0
14 0
15 0
16 0
17 0
18 0
19 0
20 0
21 0
22 0
23 0
24 0
25 0
26 0
27 0
28 0
29 0
30 0
31 0
32 0
33 0
34 0
35 0
36 0
37 0
38 0
39 0
40 0
41 0
42 0
43 0
44 0
45 0
46 0
47 0
48 0
49 0
50 0
51 0
52 0
53 0
54 0
55 0
56 0
57 0
58 0
59 0
60 0
61 0
62 0
63 0
64 0
65 0
66 0
67 0
68 0
69 0
70 0
71 0
72 0
73 0
74 0
75 0
76 0
77 0
78 0
79 0
80 0
81 0
82 0
83 0
84 0
85 0
86 0
87 0
88 0
89 0
90 0
95 0
96 0
97 0
98 0
99 0
100 0
102 0
103 0
104 0
105 0
106 0
107 0
108 0
109 0
110 0
111 0
112 0
113 0
114 0
115 0
116 0
118 0
119 0
120 0
121 0
122 0
123 0
124 0
125 0
126 0
127 0
128 0
129 0
130 0
131 0
132 0
133 0
134 0
135 0
136 0
137 0
138 0
139 0
140 0
141 0
142 0
143 0
144 0
145 0
146 0
147 0
148 0
149 0
150 0
151 0
152 0
153 0
154 0
155 0
156 0
157 0
158 0
159 0
160 0
161 0
162 0
163 0
164 0
165 0
166 0
167 0
168 0
169 0
170 0
171 0
172 0
173 0
174 0
175 0
176 0
177 0
178 0
179 0
180 0
181 0
182 0
183 0
184 0
185 0
-186 0
187 0
188 0
189 0
190 0
191 0
192 0
193 0
194 0
195 0
196 0
197 0
198 0
199 0
200 0
201 0
202 0
203 0
204 0
205 0
206 0
207 0
208 0
209 0
210 0
211 0
212 0
213 0
214 0
215 0
216 0
217 0
218 0
219 0
220 0
221 0
222 0
223 0
224 0
225 0
226 0
227 0
228 0
229 0
230 0
231 0
232 0
233 0
234 0
235 0
236 0
237 0
238 0
239 0
-240 0
241 0
242 0
243 0
244 0
245 0
246 0
247 0
248 0
-249 0
250 0
251 0
252 0
253 0
254 0
255 0
256 0
257 0
258 0
259 0
260 0
261 0
262 0
263 0
264 0
265 0
266 0
267 0
268 0
269 0
270 0
271 0
272 0
273 0
274 0
275 0
276 0
-277 0
278 0
279 0
280 0
281 0
282 0
283 0
284 0
285 0
286 0
287 0
288 0
289 0
290 0
291 0
292 0
293 0
294 0
295 0
296 0
297 0
298 0
299 0
300 0
301 0
302 0
303 0
304 0
305 0
306 0
307 0
308 0
309 0
310 0
311 0
312 0
313 0
314 0
315 0
316 0
317 0
318 0
319 0
320 0
321 0
322 0
323 0
324 0
325 0
326 0
327 0
328 0
329 0
330 0
331 0
332 0
333 0
334 0
335 0
336 0
337 0
-338 0
-339 0
-340 0
-341 0
-342 0
-343 0
-344 0
-345 0
-346 0
-347 0
-348 0
-349 0
-350 0
-351 0
-352 0
-353 0
-354 0
-355 0
-356 0
-357 0
-358 0
-359 0
-360 0
-361 0
-362 0
-363 0
-364 0
-365 0
-366 0
-367 0
-368 0
-369 0
-370 0
-371 0
-372 0
-373 0
-374 0
-375 0
-376 0
-377 0
-378 0
-379 0
-380 0
-381 0
-382 0
-383 0
-384 0
-385 0
-386 0
-387 0
-388 0
-389 0
-390 0
-391 0
-392 0
-393 0
-394 0
-395 0
-396 0
-397 0
-398 0
-399 0
-400 0
-401 0
-402 0
-403 0
-404 0
-405 0
-406 0
-407 0
-408 0
-409 0
-410 0
-411 0
-412 0
-413 0
-414 0
-415 0
-416 0
-417 0
-418 0
-419 0
-420 0
-421 0
-422 0
-423 0
-424 0
-429 0
-430 0
-431 0
-432 0
-433 0
-434 0
-436 0
-437 0
-438 0
-439 0
-440 0
-441 0
-442 0
-443 0
-444 0
-445 0
-446 0
-447 0
-448 0
-449 0
-450 0
-452 0
-453 0
-454 0
-455 0
-456 0
-457 0
-458 0
-459 0
-460 0
-461 0
-462 0
-463 0
-464 0
-465 0
-466 0
-467 0
-468 0
-469 0
-470 0
-471 0
-472 0
-473 0
-474 0
-475 0
-476 0
-477 0
-478 0
-479 0
-480 0
-481 0
-482 0
-483 0
-484 0
-485 0
-486 0
-487 0
-488 0
-489 0
-490 0
-491 0
-492 0
-493 0
-494 0
-495 0
-496 0
-497 0
-498 0
-499 0
-500 0
-501 0
-502 0
-503 0
-504 0
-505 0
-506 0
-507 0
-508 0
-509 0
-510 0
-511 0
-512 0
-513 0
-514 0
-515 0
-516 0
-517 0
-518 0
-519 0
520 0
-521 0
-522 0
-523 0
-524 0
-525 0
-526 0
-527 0
-528 0
-529 0
-530 0
-531 0
-532 0
-533 0
-534 0
-535 0
-536 0
-537 0
-538 0
-539 0
-540 0
-541 0
-542 0
-543 0
-544 0
-545 0
-546 0
-547 0
-548 0
-549 0
-550 0
-551 0
-552 0
-553 0
-554 0
-555 0
-556 0
-557 0
-558 0
-559 0
-560 0
-561 0
-562 0
-563 0
-564 0
-565 0
-566 0
-567 0
-568 0
-569 0
-570 0
-571 0
-572 0
-573 0
-574 0
-575 0
-576 0
-577 0
-578 0
-579 0
-580 0
-581 0
-582 0
583 0
-584 0
-585 0
-586 0
-587 0
-588 0
-589 0
-590 0
-591 0
-592 0
-593 0
-594 0
-595 0
-596 0
-597 0
-598 0
-599 0
-600 0
-601 0
-602 0
-603 0
-604 0
-605 0
-606 0
-607 0
-608 0
-609 0
-610 0
611 0
-612 0
-613 0
-614 0
-615 0
-616 0
-617 0
-618 0
-619 0
-620 0
-621 0
-622 0
-623 0
-624 0
-625 0
-626 0
-627 0
-628 0
-629 0
-630 0
-631 0
-632 0
-633 0
-634 0
-635 0
-636 0
-637 0
-638 0
-639 0
-640 0
-641 0
-642 0
-643 0
-644 0
-645 0
-646 0
-647 0
-648 0
-649 0
-650 0
-651 0
-652 0
-653 0
-654 0
-655 0
-656 0
-657 0
-658 0
-659 0
-660 0
-661 0
-662 0
-663 0
-664 0
-665 0
-666 0
-667 0
-668 0
-669 0
-670 0
-671 0
672 0
673 0
674 0
-675 0
679 0
-680 0
-684 0
688 0
691 0
-692 0
695 0
696 0
698 0
718 0
742 0
750 0
758 0
760 0
-792 0
793 0
795 0
796 0
797 0
798 0
799 0
-809 0
912 0
988 0
1017 0
1052 0
1115 0
1116 0
1117 0
1118 0
1119 0
1120 0
1121 0
1122 0
1123 0
1125 0
1126 0
1127 0
1128 0
1129 0
1130 0
1131 0
1132 0
1133 0
1134 0
1135 0
1136 0
1137 0
1138 0
1140 0
1141 0
1142 0
1143 0
1145 0
1146 0
1147 0
1148 0
1149 0
1150 0
1151 0
1152 0
1154 0
1155 0
1156 0
1157 0
1158 0
1159 0
1160 0
1162 0
1163 0
1164 0
1165 0
1166 0
1167 0
1168 0
1169 0
1170 0
1171 0
1172 0
1173 0
1174 0
1175 0
1176 0
1177 0
1178 0
1179 0
1180 0
-1181 0
1182 0
1183 0
1184 0
1185 0
1186 0
1187 0
1188 0
1189 0
1190 0
1191 0
1192 0
1193 0
1194 0
1195 0
1196 0
1197 0
1198 0
1199 0
1200 0
1201 0
1202 0
1203 0
1204 0
1205 0
1206 0
1207 0
1208 0
-1209 0
1210 0
1211 0
1212 0
1213 0
1214 0
1215 0
1216 0
1217 0
1218 0
1219 0
1220 0
1221 0
1222 0
1223 0
1224 0
1225 0
1226 0
1227 0
1228 0
1229 0
1230 0
1231 0
1232 0
1233 0
1234 0
1235 0
1236 0
1237 0
1238 0
1239 0
1240 0
1241 0
1242 0
1243 0
1244 0
1245 0
1246 0
1247 0
1248 0
1249 0
1250 0
1251 0
1252 0
1253 0
1254 0
1255 0
1256 0
1257 0
1258 0
1259 0
1305 0
1334 0
1354 0
1355 0
1356 0
1357 0
1358 0
1359 0
1360 0
1361 0
1362 0
1363 0
1364 0
1365 0
1366 0
1367 0
1368 0
1369 0
1370 0
1371 0
1372 0
1373 0
1374 0
1375 0
1376 0
1377 0
1378 0
1379 0
1380 0
1381 0
1382 0
1383 0
1384 0
1385 0
1386 0
1387 0
1388 0
1389 0
1390 0
1391 0
1392 0
1393 0
1394 0
1395 0
1396 0
1397 0
1398 0
1399 0
1400 0
1401 0
1402 0
1403 0
1404 0
1405 0
1406 0
1407 0
1408 0
1409 0
1410 0
1411 0
1412 0
1413 0
1414 0
1415 0
1416 0
1417 0
1418 0
1419 0
1420 0
1421 0
1422 0
1423 0
1424 0
1425 0
1426 0
1427 0
1428 0
1429 0
1430 0
1431 0
1432 0
1433 0
1434 0
1435 0
1436 0
1437 0
1438 0
1439 0
1440 0
1441 0
1442 0
1443 0
1444 0
1445 0
1446 0
1447 0
1448 0
1449 0
1450 0
1451 0
1452 0
1453 0
1454 0
1455 0
1456 0
1457 0
1458 0
1459 0
1460 0
1461 0
1462 0
1463 0
1464 0
1465 0
1466 0
1479 0
-1495 0
1496 0
1497 0
1498 0
1499 0
1501 0
1502 0
1503 0
1504 0
1505 0
1506 0
1507 0
1508 0
1509 0
1510 0
1511 0
1512 0
1513 0
1514 0
1515 0
1516 0
1517 0
1518 0
1519 0
1520 0
1521 0
1522 0
1523 0
1524 0
1525 0
1526 0
1527 0
1528 0
1529 0
1530 0
1531 0
1532 0
1533 0
1534 0
1535 0
1536 0
1537 0
1538 0
1539 0
1540 0
1541 0
1542 0
1543 0
1544 0
1545 0
1546 0
1547 0
1548 0
1549 0
1550 0
1551 0
1552 0
1553 0
1554 0
1555 0
1556 0
1557 0
-1558 0
1559 0
1560 0
1561 0
1562 0
1563 0
1564 0
1565 0
1566 0
1567 0
1568 0
1569 0
1570 0
2326 0
-2327 0
-2328 0
-2329 0
-2330 0
-2331 0
-2332 0
-2333 0
-2334 0
-2335 0
-2336 0
-2337 0
-2338 0
-2339 0
-2340 0
-2341 0
-2342 0
-2343 0
-2344 0
-2345 0
-2346 0
-2347 0
-2348 0
-2349 0
-2350 0
-2351 0
-2352 0
-2353 0
-2354 0
-2355 0
-2356 0
-2357 0
-2358 0
-2359 0
-2360 0
-2361 0
-2362 0
-2363 0
-2364 0
-2365 0
-2366 0
-2367 0
-2368 0
-2369 0
-2370 0
-2371 0
-2372 0
-2373 0
-2374 0
-2375 0
-2376 0
-2377 0
-2378 0
-2379 0
-2380 0
-2381 0
-2382 0
-2383 0
-2384 0
-2385 0
-2386 0
-2387 0
-2388 0
-2389 0
-2390 0
-2391 0
-2392 0
-2393 0
-2394 0
-2395 0
-2396 0
-2397 0
-2398 0
-2399 0
-2400 0
-2401 0
-2402 0
-2403 0
-2404 0
-2405 0
-2406 0
-2407 0
-2408 0
-2409 0
-2410 0
-2411 0
-2412 0
-2413 0
-2418 0
-2419 0
-2420 0
-2421 0
-2422 0
-2423 0
-2425 0
-2426 0
-2427 0
-2428 0
-2429 0
-2430 0
-2431 0
-2432 0
-2433 0
-2434 0
-2435 0
-2436 0
-2437 0
-2438 0
-2439 0
-2441 0
-2442 0
-2443 0
-2444 0
-2445 0
-2446 0
-2447 0
-2448 0
-2449 0
-2450 0
-2451 0
-2452 0
-2453 0
-2454 0
-2455 0
-2456 0
-2457 0
-2458 0
-2459 0
-2460 0
-2461 0
-2462 0
-2463 0
-2464 0
-2465 0
-2466 0
-2467 0
-2468 0
-2469 0
-2470 0
-2471 0
-2472 0
-2473 0
-2474 0
-2475 0
-2476 0
-2477 0
-2478 0
-2479 0
-2480 0
-2481 0
-2482 0
-2483 0
-2484 0
-2485 0
-2486 0
-2487 0
-2488 0
-2489 0
-2490 0
-2491 0
-2492 0
-2493 0
-2494 0
-2495 0
-2496 0
-2497 0
-2498 0
-2499 0
-2500 0
-2501 0
-2502 0
-2503 0
-2504 0
-2505 0
-2506 0
-2507 0
-2508 0
-2509 0
-2510 0
-2511 0
-2512 0
-2513 0
-2514 0
-2515 0
-2516 0
-2517 0
-2518 0
-2519 0
-2520 0
-2521 0
-2522 0
-2523 0
-2524 0
-2525 0
-2526 0
-2527 0
-2528 0
-2529 0
-2530 0
-2531 0
-2532 0
-2533 0
-2534 0
-2535 0
-2536 0
-2537 0
-2538 0
-2539 0
-2540 0
-2541 0
-2542 0
-2543 0
-2544 0
-2545 0
-2546 0
-2547 0
-2548 0
-2549 0
-2550 0
-2551 0
-2552 0
-2553 0
-2554 0
-2555 0
-2556 0
-2557 0
-2558 0
-2559 0
-2560 0
-2561 0
-2562 0
-2563 0
-2564 0
-2565 0
-2566 0
-2567 0
-2568 0
-2569 0
-2570 0
-2571 0
-2572 0
-2573 0
-2574 0
-2575 0
-2576 0
-2577 0
-2578 0
-2579 0
-2580 0
-2581 0
-2582 0
-2583 0
-2584 0
-2585 0
-2586 0
-2587 0
-2588 0
-2589 0
-2590 0
-2591 0
-2592 0
-2593 0
-2594 0
-2595 0
-2596 0
-2597 0
-2598 0
-2599 0
-2600 0
-2601 0
-2602 0
-2603 0
-2604 0
-2605 0
-2606 0
-2607 0
-2608 0
-2609 0
-2610 0
-2611 0
-2612 0
-2613 0
-2614 0
-2615 0
-2616 0
-2617 0
-2618 0
-2619 0
-2620 0
-2621 0
-2622 0
-2623 0
-2624 0
-2625 0
-2626 0
-2627 0
-2628 0
-2629 0
-2630 0
-2631 0
-2632 0
-2633 0
-2634 0
-2635 0
-2636 0
-2637 0
-2638 0
-2639 0
-2640 0
-2641 0
-2642 0
-2643 0
-2644 0
-2645 0
-2646 0
-2647 0
-2648 0
-2649 0
-2650 0
-2651 0
-2652 0
-2653 0
-2654 0
-2655 0
-2656 0
-2657 0
-2658 0
-2659 0
-2660 0
-1758 0
-1759 0
-1760 0
-1761 0
-1762 0
-1763 0
-1764 0
-1765 0
-1766 0
-1767 0
-1768 0
-1769 0
-1770 0
-1771 0
-1772 0
-1773 0
-1774 0
-1775 0
-1776 0
-1777 0
-1778 0
-1779 0
-1780 0
-1781 0
-1782 0
-1783 0
-1784 0
-1785 0
-1786 0
-1787 0
-1788 0
-1789 0
-1790 0
-1791 0
-1792 0
-1793 0
-1794 0
-1795 0
-1796 0
-1797 0
-1798 0
-1799 0
-1800 0
-1667 0
-1668 0
-1669 0
-1670 0
-1671 0
-1672 0
-1673 0
-1674 0
-1675 0
-1676 0
-1677 0
-1678 0
-1679 0
-1680 0
-1681 0
-1682 0
-1683 0
-1684 0
-1685 0
-1686 0
-1687 0
-1688 0
-1689 0
-1690 0
-1691 0
-1692 0
-1693 0
-1694 0
-1695 0
-1696 0
-1697 0
-1698 0
-1699 0
-1700 0
-1701 0
-1702 0
-1703 0
-1704 0
-1867 0
-1705 0
-2018 0
-2019 0
-1706 0
-1823 0
-1707 0
-1824 0
-1708 0
-1825 0
-1826 0
-1827 0
-1828 0
-1829 0
-1830 0
-1831 0
-1832 0
-1833 0
-1834 0
-1835 0
-1836 0
-1837 0
-1838 0
-1839 0
-1709 0
-1710 0
-1840 0
-1841 0
-1711 0
-1712 0
-1842 0
-1843 0
-1844 0
-1845 0
-1846 0
-1713 0
-1847 0
-1848 0
-1849 0
-1850 0
-1851 0
-1852 0
-1714 0
-1853 0
-1854 0
-1715 0
-1855 0
-1856 0
-1857 0
-1716 0
-1868 0
-1717 0
-1858 0
-1859 0
-1860 0
-1861 0
-1862 0
-1863 0
-1864 0
-1718 0
-1865 0
-1866 0
-1801 0
-1719 0
-1720 0
-1802 0
-1803 0
-1804 0
-1805 0
-1721 0
-1722 0
-1806 0
-1807 0
-1808 0
-1809 0
-1810 0
-1811 0
-1812 0
-1813 0
-1814 0
-1815 0
-1816 0
-1817 0
-1818 0
-1819 0
-1723 0
-1820 0
-1724 0
-1821 0
-1822 0
-2222 0
-1725 0
-2223 0
-1726 0
-2224 0
-2225 0
-2226 0
-2227 0
-2228 0
-2229 0
-2230 0
-1727 0
-2231 0
-1869 0
-2232 0
-2233 0
-2234 0
-1728 0
-2235 0
-1729 0
-2236 0
-2237 0
-2238 0
-1730 0
-1731 0
-2239 0
-2240 0
-2241 0
-2242 0
-2243 0
-2020 0
-2021 0
-2022 0
-2023 0
-1732 0
-1733 0
-2024 0
-2025 0
-2026 0
-2027 0
-2028 0
-2244 0
-2029 0
-2030 0
-2031 0
-2032 0
-2033 0
-2034 0
-2035 0
-2036 0
-2037 0
-2245 0
-2038 0
-2039 0
-2040 0
-2246 0
-2041 0
-2247 0
-2042 0
-1571 0
-2248 0
-1572 0
-1573 0
-2249 0
-1574 0
-1575 0
-2015 0
-1576 0
-1577 0
-1578 0
-1579 0
-1580 0
-1581 0
-1582 0
-1583 0
-1584 0
-1585 0
-1586 0
-1587 0
-1588 0
-1589 0
-1590 0
-1591 0
-1592 0
-1593 0
-1594 0
-1595 0
-1596 0
-1597 0
-1598 0
-1599 0
-1600 0
-1601 0
-1602 0
-1603 0
-1604 0
-1605 0
-1606 0
-1607 0
-1608 0
-1609 0
-1610 0
-1611 0
-1612 0
-1613 0
-1614 0
-1615 0
-1616 0
-1617 0
-1618 0
-1619 0
-1620 0
-1621 0
-1622 0
-1623 0
-1624 0
-1625 0
-1626 0
-1627 0
-1628 0
-1629 0
-1630 0
-1631 0
-1632 0
-1633 0
-1634 0
-1635 0
-1636 0
-1637 0
-1638 0
-1639 0
-1640 0
-1641 0
-1642 0
-1643 0
-1644 0
-1645 0
-1646 0
-2016 0
-1647 0
-1648 0
-1649 0
-1650 0
-1651 0
-1652 0
-1653 0
-1654 0
-1655 0
-1656 0
-1657 0
-1658 0
-1659 0
-1660 0
-1661 0
-1662 0
-1663 0
-1664 0
-1665 0
-1666 0
-2043 0
-2044 0
-2045 0
-2046 0
-2047 0
-2048 0
-2049 0
-2050 0
-2051 0
-2052 0
-2053 0
-2054 0
-2055 0
-2056 0
-2057 0
-2058 0
-2059 0
-2060 0
-2061 0
-2017 0
-2062 0
-2063 0
-2064 0
-2065 0
-2066 0
-2067 0
-2068 0
-2069 0
-2070 0
-2071 0
-2072 0
-2073 0
-2074 0
-2075 0
-2076 0
-2077 0
-2078 0
-2079 0
-2080 0
-2081 0
-2082 0
-2083 0
-2084 0
-2085 0
-2086 0
-2087 0
-2088 0
-2089 0
-2090 0
-2091 0
-2092 0
-2093 0
-2094 0
-2095 0
-2096 0
-2097 0
-2098 0
-2099 0
-2100 0
-2101 0
-2102 0
-2103 0
-2104 0
-2105 0
-2106 0
-2107 0
-2108 0
-1734 0
-1735 0
-1736 0
-1737 0
-1738 0
-1739 0
-1740 0
-1741 0
-1742 0
-1743 0
-1744 0
-1745 0
-1746 0
-1747 0
-1748 0
-1749 0
-1750 0
-1751 0
-1752 0
-1753 0
-1754 0
-1755 0
-1756 0
-1757 0

